12 66
1 2 2
1 3 5
1 4 4
1 5 2
1 6 1
1 7 5
1 8 2
1 9 4
1 10 4
1 11 5
1 12 3
2 3 1
2 4 4
2 5 5
2 6 3
2 7 5
2 8 4
2 9 4
2 10 4
2 11 3
2 12 4
3 4 4
3 5 5
3 6 4
3 7 3
3 8 3
3 9 2
3 10 2
3 11 3
3 12 4
4 5 5
4 6 5
4 7 2
4 8 2
4 9 3
4 10 1
4 11 1
4 12 2
5 6 2
5 7 4
5 8 4
5 9 4
5 10 3
5 11 2
5 12 3
6 7 3
6 8 4
6 9 3
6 10 1
6 11 5
6 12 3
7 8 4
7 9 2
7 10 1
7 11 5
7 12 3
8 9 5
8 10 1
8 11 5
8 12 1
9 10 4
9 11 1
9 12 5
10 11 5
10 12 3
11 12 4
